n = 90;
capacity = 100;
size = [80, 80, 79, 79, 79, 78, 78, 77, 77, 77, 73, 72, 72, 72, 72, 71, 70, 68, 68, 67, 65, 64, 64, 62, 61, 61, 60, 60, 59, 58, 58, 58, 58, 56, 56, 56, 56, 55, 55, 55, 54, 53, 53, 53, 52, 51, 51, 50, 50, 50, 49, 49, 48, 48, 48, 48, 46, 46, 43, 43, 43, 42, 40, 38, 37, 36, 36, 35, 35, 34, 33, 33, 32, 31, 31, 30, 29, 28, 28, 27, 26, 26, 26, 25, 24, 23, 23, 23, 20, 20];
